

# Parametro M: numero minimo di dipendenti richiesti per ciascun reparto
# Per il reparto pausa (0) non è richiesto un minimo, per cui M[0] = 0.
param M :=
  1 2
  2 3
  3 2
;

# Parametro Smax: livello massimo di stress tollerabile per ciascun dipendente
param Smax :=
  1 90
  2 90
  3 90
  4 90
  5 90
  6 90
  7 90
  8 90
;

# Parametro lambda: penalizzazione per il cambiamento di assegnazione (se il dipendente non resta nel reparto j0)
param lambda := 5;

# Parametro c_pausa: costo addizionale elevato per l'assegnamento al reparto di pausa
param c_pausa := 70;

# Parametro alpha: competenze del dipendente per ciascun reparto
# Per il reparto pausa (j=0) tutti i dipendenti hanno competenza (1)
param alpha:
         1   2   3 :=
  1      1   1   1
  2      1   1   1
  3      1   1   1
  4      1   1   1
  5      1   1   1
  6      1   1   1
  7      1   1   1
  8      1   1   1
;
